nNurses = 63;
nHours = 26;
minHours = 7;
maxHours = 16;
maxConsec = 15;
maxPresence = 14;
demand = [37, 35, 33, 37, 33, 38, 36, 31, 28, 25, 20, 20, 17, 18, 16, 18, 22, 20, 25, 29, 28, 25, 22, 23, 28, 26];
